 vasp.5.4.1 24Jun15 (build Dec 08 2016 11:43:44) complex

 executed on           IFC91_ompi date 2019.08.20  10:01:18

 INCAR:
 POTCAR:    PAW_PBE Si 05Jan2001

 POTCAR:    PAW_PBE Si 05Jan2001
   VRHFIN =Si: s2p2

   TITEL  = PAW_PBE Si 05Jan2001
   POMASS =   28.085; ZVAL   =    4.000    mass and valenz
   ENMAX  =  245.345; ENMIN  =  184.009 eV

  PAW_PBE Si 05Jan2001                  :

 POSCAR: bulk@JVASP-1002_mp-149
  positions in direct lattice
 exchange correlation table for  LEXCH =       42
   RHO(1)=    0.500       N(1)  =     2000
   RHO(2)=  100.500       N(2)  =     4000

 ion  position               nearest neighbor table
   1  0.000  0.000  0.000-   2 2.38   4 2.38   6 2.38   8 2.38
   2  0.250  0.250  0.250-   1 2.38   3 2.38   5 2.38   7 2.38
   3  0.000  0.500  0.500-   2 2.38   4 2.38   6 2.38   8 2.38
   4  0.250  0.750  0.750-   1 2.38   3 2.38   5 2.38   7 2.38
   5  0.500  0.000  0.500-   2 2.38   4 2.38   6 2.38   8 2.38
   6  0.750  0.250  0.750-   1 2.38   3 2.38   5 2.38   7 2.38
   7  0.500  0.500  0.000-   2 2.38   4 2.38   6 2.38   8 2.38
   8  0.750  0.750  0.250-   1 2.38   3 2.38   5 2.38   7 2.38

  LATTYP: Found a simple cubic cell.
 ALAT       =     5.4936420000

  Lattice vectors:

 A1 = (   5.4936420000,   0.0000000000,   0.0000000000)
 A2 = (   0.0000000000,   5.4936420000,   0.0000000000)
 A3 = (   0.0000000000,   0.0000000000,   5.4936420000)

Analysis of symmetry for initial positions (statically):
 Subroutine PRICEL returns following result:

  LATTYP: Found a face centered cubic cell.
 ALAT       =     5.4936420000

[...]

   4 primitive cells build up your supercell.

 Routine SETGRP: Setting up the symmetry group for a
 simple cubic supercell.

 Subroutine GETGRP returns: Found 48 space group operations
 (whereof 24 operations were pure point group operations)
 out of a pool of 48 trial point group operations.

The static configuration has the point symmetry T_d .
 The point group associated with its full space group is O_h .

Analysis of symmetry for dynamics (positions and initial velocities):
 Subroutine PRICEL returns following result:

[...]

The dynamic configuration has the point symmetry T_d .
 The point group associated with its full space group is O_h .

Analysis of magnetic symmetry:
 Subroutine PRICEL returns following result:

[...]

 Subroutine MAGSYM returns: Found 48 space group operations
 (whereof 24 operations were pure point group operations)
 out of a pool of 48 trial space group operations
 (whereof 24 operations were pure point group operations)
 and found also     4 'primitive' translations

The magnetic configuration has the point symmetry T_d .
 The point group associated with its full space group is O_h .

 irot  :   1
 isymop:   1   0   0
           0   1   0
           0   0   1

 gtrans:     0.0000000     0.0000000     0.0000000

 ptrans:     0.0000000     0.0000000     0.0000000
 rotmap:
 (   1->   1)  (   2->   2)  (   3->   3)  (   4->   4)  (   5->   5)
 (   6->   6)  (   7->   7)  (   8->   8)

[...]

 irot  :  48
 isymop:   0   0  -1
           0  -1   0
          -1   0   0

 gtrans:     0.7500000     0.7500000    -0.7500000

[...]

 ptrans:     0.0000000     0.5000000     0.5000000
 rotmap:
 (   1->   6)  (   2->   5)  (   3->   4)  (   4->   3)  (   5->   2)
 (   6->   1)  (   7->   8)  (   8->   7)

 KPOINTS: Automatic kpoint scheme

Automatic generation of k-mesh.
Space group operators:
 irot       det(A)        alpha          n_x          n_y          n_z        tau_x        tau_y        tau_z
    1     1.000000     0.000001     1.000000     0.000000     0.000000     0.000000     0.000000     0.000000
    2     1.000000   120.000000    -0.577350    -0.577350    -0.577350     0.000000     0.000000     0.000000
    3     1.000000   120.000000     0.577350     0.577350     0.577350     0.000000     0.000000     0.000000
    4    -1.000000    90.000000     0.000000     0.000000    -1.000000     0.000000     0.000000     0.000000
    5    -1.000000   180.000000     0.000000     0.707107     0.707107     0.000000     0.000000     0.000000
    6    -1.000000    90.000000     0.000000     1.000000     0.000000     0.000000     0.000000     0.000000
    7     1.000000   180.000000     0.000000     0.000000     1.000000     0.000000     0.000000     0.000000
    8     1.000000   120.000000    -0.577350     0.577350     0.577350     0.000000     0.000000     0.000000
    9     1.000000   120.000000    -0.577350     0.577350    -0.577350     0.000000     0.000000     0.000000
   10    -1.000000    90.000000     0.000000     0.000000     1.000000     0.000000     0.000000     0.000000
   11    -1.000000    90.000000    -1.000000     0.000000     0.000000     0.000000     0.000000     0.000000
   12    -1.000000   180.000000     0.707107     0.000000     0.707107     0.000000     0.000000     0.000000
   13     1.000000   120.000000     0.577350    -0.577350     0.577350     0.000000     0.000000     0.000000
   14     1.000000   120.000000    -0.577350    -0.577350     0.577350     0.000000     0.000000     0.000000
   15     1.000000   180.000000     1.000000     0.000000     0.000000     0.000000     0.000000     0.000000
   16    -1.000000    90.000000     0.000000    -1.000000     0.000000     0.000000     0.000000     0.000000
   17    -1.000000   180.000000     0.707107     0.707107     0.000000     0.000000     0.000000     0.000000
   18    -1.000000    90.000000     1.000000     0.000000     0.000000     0.000000     0.000000     0.000000
   19     1.000000   120.000000     0.577350    -0.577350    -0.577350     0.000000     0.000000     0.000000
   20     1.000000   180.000000     0.000000     1.000000     0.000000     0.000000     0.000000     0.000000
   21     1.000000   120.000000     0.577350     0.577350    -0.577350     0.000000     0.000000     0.000000
   22    -1.000000   180.000000     0.000000    -0.707107     0.707107     0.000000     0.000000     0.000000
   23    -1.000000   180.000000     0.707107    -0.707107     0.000000     0.000000     0.000000     0.000000
   24    -1.000000   180.000000     0.707107     0.000000    -0.707107     0.000000     0.000000     0.000000
   25    -1.000000     0.000001     1.000000     0.000000     0.000000     0.750000     0.750000    -0.750000
   26    -1.000000   120.000000    -0.577350    -0.577350    -0.577350     0.750000     0.750000    -0.750000
   27    -1.000000   120.000000     0.577350     0.577350     0.577350     0.750000     0.750000    -0.750000
   28     1.000000    90.000000     0.000000     0.000000    -1.000000     0.750000     0.750000    -0.750000
   29     1.000000   180.000000     0.000000     0.707107     0.707107     0.750000     0.750000    -0.750000
   30     1.000000    90.000000     0.000000     1.000000     0.000000     0.750000     0.750000    -0.750000
   31    -1.000000   180.000000     0.000000     0.000000     1.000000     0.750000     0.750000    -0.750000
   32    -1.000000   120.000000    -0.577350     0.577350     0.577350     0.750000     0.750000    -0.750000
   33    -1.000000   120.000000    -0.577350     0.577350    -0.577350     0.750000     0.750000    -0.750000
   34     1.000000    90.000000     0.000000     0.000000     1.000000     0.750000     0.750000    -0.750000
   35     1.000000    90.000000    -1.000000     0.000000     0.000000     0.750000     0.750000    -0.750000
   36     1.000000   180.000000     0.707107     0.000000     0.707107     0.750000     0.750000    -0.750000
   37    -1.000000   120.000000     0.577350    -0.577350     0.577350     0.750000     0.750000    -0.750000
   38    -1.000000   120.000000    -0.577350    -0.577350     0.577350     0.750000     0.750000    -0.750000
   39    -1.000000   180.000000     1.000000     0.000000     0.000000     0.750000     0.750000    -0.750000
   40     1.000000    90.000000     0.000000    -1.000000     0.000000     0.750000     0.750000    -0.750000
   41     1.000000   180.000000     0.707107     0.707107     0.000000     0.750000     0.750000    -0.750000
   42     1.000000    90.000000     1.000000     0.000000     0.000000     0.750000     0.750000    -0.750000
   43    -1.000000   120.000000     0.577350    -0.577350    -0.577350     0.750000     0.750000    -0.750000
   44    -1.000000   180.000000     0.000000     1.000000     0.000000     0.750000     0.750000    -0.750000
   45    -1.000000   120.000000     0.577350     0.577350    -0.577350     0.750000     0.750000    -0.750000
   46     1.000000   180.000000     0.000000    -0.707107     0.707107     0.750000     0.750000    -0.750000
   47     1.000000   180.000000     0.707107    -0.707107     0.000000     0.750000     0.750000    -0.750000
   48     1.000000   180.000000     0.707107     0.000000    -0.707107     0.750000     0.750000    -0.750000

 Subroutine IBZKPT returns following result:

 Found     20 irreducible k-points:

 Following reciprocal coordinates:
            Coordinates               Weight
  0.000000  0.000000  0.000000      1.000000
  0.166667  0.000000  0.000000      6.000000
  0.333333  0.000000  0.000000      6.000000
  0.500000  0.000000  0.000000      3.000000
  0.166667  0.166667  0.000000     12.000000
  0.333333  0.166667  0.000000     24.000000
  0.500000  0.166667  0.000000     12.000000
  0.333333  0.333333  0.000000     12.000000
  0.500000  0.333333  0.000000     12.000000
  0.500000  0.500000  0.000000      3.000000
  0.166667  0.166667  0.166667      8.000000
  0.333333  0.166667  0.166667     24.000000
  0.500000  0.166667  0.166667     12.000000
  0.333333  0.333333  0.166667     24.000000
  0.500000  0.333333  0.166667     24.000000
  0.500000  0.500000  0.166667      6.000000
  0.333333  0.333333  0.333333      8.000000
  0.500000  0.333333  0.333333     12.000000
  0.500000  0.500000  0.333333      6.000000
  0.500000  0.500000  0.500000      1.000000

 Following cartesian coordinates:
            Coordinates               Weight
  0.000000  0.000000  0.000000      1.000000
  0.030338  0.000000  0.000000      6.000000
  0.060676  0.000000  0.000000      6.000000
  0.091014  0.000000  0.000000      3.000000
  0.030338  0.030338  0.000000     12.000000
  0.060676  0.030338  0.000000     24.000000
  0.091014  0.030338  0.000000     12.000000
  0.060676  0.060676  0.000000     12.000000
  0.091014  0.060676  0.000000     12.000000
  0.091014  0.091014  0.000000      3.000000
  0.030338  0.030338  0.030338      8.000000
  0.060676  0.030338  0.030338     24.000000
  0.091014  0.030338  0.030338     12.000000
  0.060676  0.060676  0.030338     24.000000
  0.091014  0.060676  0.030338     24.000000
  0.091014  0.091014  0.030338      6.000000
  0.060676  0.060676  0.060676      8.000000
  0.091014  0.060676  0.060676     12.000000
  0.091014  0.091014  0.060676      6.000000
  0.091014  0.091014  0.091014      1.000000

 Subroutine IBZKPT_HF returns following result:

 Found    216 k-points in 1st BZ
 the following    216 k-points will be used (e.g. in the exchange kernel)
 Following reciprocal coordinates:   # in IRBZ
  0.000000  0.000000  0.000000    0.00462963   1 t-inv F
  0.166667  0.000000  0.000000    0.00462963   2 t-inv F
[...]
  0.166667  0.000000  0.000000      6.000000
  0.333333  0.000000  0.000000      6.000000
  0.500000  0.000000  0.000000      3.000000
  0.166667  0.166667  0.000000     12.000000
  0.333333  0.166667  0.000000     24.000000
  0.500000  0.166667  0.000000     12.000000
  0.333333  0.333333  0.000000     12.000000
  0.500000  0.333333  0.000000     12.000000
  0.500000  0.500000  0.000000      3.000000
  0.166667  0.166667  0.166667      8.000000
  0.333333  0.166667  0.166667     24.000000
  0.500000  0.166667  0.166667     12.000000
  0.333333  0.333333  0.166667     24.000000
  0.500000  0.333333  0.166667     24.000000
  0.500000  0.500000  0.166667      6.000000
  0.333333  0.333333  0.333333      8.000000
  0.500000  0.333333  0.333333     12.000000
  0.500000  0.500000  0.333333      6.000000
  0.500000  0.500000  0.500000      1.000000

 Following cartesian coordinates:
            Coordinates               Weight
  0.000000  0.000000  0.000000      1.000000
  0.030338  0.000000  0.000000      6.000000
  0.060676  0.000000  0.000000      6.000000
  0.091014  0.000000  0.000000      3.000000
  0.030338  0.030338  0.000000     12.000000
  0.060676  0.030338  0.000000     24.000000
  0.091014  0.030338  0.000000     12.000000
  0.060676  0.060676  0.000000     12.000000
  0.091014  0.060676  0.000000     12.000000
  0.091014  0.091014  0.000000      3.000000
  0.030338  0.030338  0.030338      8.000000
  0.060676  0.030338  0.030338     24.000000
  0.091014  0.030338  0.030338     12.000000
  0.060676  0.060676  0.030338     24.000000
  0.091014  0.060676  0.030338     24.000000
  0.091014  0.091014  0.030338      6.000000
  0.060676  0.060676  0.060676      8.000000
  0.091014  0.060676  0.060676     12.000000
  0.091014  0.091014  0.060676      6.000000
  0.091014  0.091014  0.091014      1.000000

 MACROSCOPIC STATIC DIELECTRIC TENSOR (including local field effects in DFT)
          12.918350    -0.000000     0.000000
          -0.000000    12.918350    -0.000000
           0.000000    -0.000000    12.918350

 PIEZOELECTRIC TENSOR  for field in x, y, z        (e  Angst)
          XX          YY          ZZ          XY          YZ          ZX
  x    -0.00752     0.00331     0.00331     0.00000     0.00000     0.00000
  y     0.00331    -0.00752     0.00331     0.00000     0.00000     0.00000
  z     0.00331     0.00331    -0.00751     0.00000     0.00000     0.00000

 PIEZOELECTRIC TENSOR  for field in x, y, z        (C/m^2)
          XX          YY          ZZ          XY          YZ          ZX
  x     0.00000     0.00000     0.00000     0.00000     0.00000     0.00000
  y     0.00000     0.00000     0.00000     0.00000     0.00000     0.00000
  z     0.00000     0.00000     0.00000     0.00000     0.00000     0.00000

 BORN EFFECTIVE CHARGES (in e, cummulative output)
 ion    1
    1    -0.00910     0.00000     0.00000
    2     0.00000    -0.00909    -0.00000
    3    -0.00000    -0.00000    -0.00910
 ion    2
    1    -0.00910    -0.00000     0.00000
    2    -0.00000    -0.00909     0.00000
    3    -0.00000     0.00000    -0.00910
 ion    3
    1    -0.00910    -0.00000     0.00000
    2     0.00000    -0.00909     0.00000
    3     0.00000     0.00000    -0.00910
 ion    4
    1    -0.00910     0.00000     0.00000
    2     0.00000    -0.00909    -0.00000
    3     0.00000    -0.00000    -0.00910
 ion    5
    1    -0.00910     0.00000     0.00000
    2     0.00000    -0.00909     0.00000
    3     0.00000     0.00000    -0.00910
 ion    6
    1    -0.00910    -0.00000    -0.00000
    2     0.00000    -0.00909    -0.00000
    3     0.00000    -0.00000    -0.00910
 ion    7
    1    -0.00910     0.00000     0.00000
    2     0.00000    -0.00909     0.00000
    3     0.00000    -0.00000    -0.00910
 ion    8
    1    -0.00910    -0.00000    -0.00000
    2     0.00000    -0.00909    -0.00000
    3    -0.00000     0.00000    -0.00910

 INTERNAL STRAIN TENSOR FOR ION    1 for displacements in x,y,z  (eV/Angst):
          X           Y           Z          XY          YZ          ZX
  x    -0.00000    -0.00000    -0.00000     0.00000     8.27239     0.00000
  y    -0.00000    -0.00000    -0.00000     0.00000     0.00000     8.27239
  z    -0.00000    -0.00000    -0.00000     8.27239    -0.00000     0.00000

[...]

 INTERNAL STRAIN TENSOR FOR ION    8 for displacements in x,y,z  (eV/Angst):
          X           Y           Z          XY          YZ          ZX
  x     0.00000     0.00000     0.00000    -0.00000    -8.27239    -0.00000
  y     0.00000     0.00000     0.00000    -0.00000    -0.00000    -8.27239
  z     0.00000     0.00000     0.00000    -8.27239     0.00000    -0.00000

 SECOND DERIVATIVES (NOT SYMMETRIZED)
               1X          1Y          1Z          2X          2Y          2Z          3X          3Y          3Z          4X          4Y          4Z          5X          5Y          5Z          6X          6Y          6Z          7X          7Y          7Z          8X          8Y          8Z
  1X   -12.773463   -0.000000    0.000000    3.182130    2.151695    2.151695   -1.740970    0.000000    0.000000    3.182130   -2.151695   -2.151695    0.892956    0.000000    0.000000    3.182130   -2.151695    2.151695    0.892956   -0.000000   -0.000000    3.182130    2.151695   -2.151695
  1Y    -0.000000  -12.773463    0.000000    2.151695    3.182130    2.151695    0.000000    0.892956    0.000000   -2.151695    3.182130    2.151695    0.000000   -1.740970    0.000000   -2.151695    3.182130   -2.151695   -0.000000    0.892956   -0.000000    2.151695    3.182130   -2.151695
  1Z    -0.000000    0.000000  -12.773463    2.151695    2.151695    3.182130    0.000000    0.000000    0.892956   -2.151695    2.151695    3.182130   -0.000000   -0.000000    0.892956    2.151695   -2.151695    3.182130   -0.000000    0.000000   -1.740970   -2.151695   -2.151695    3.182130
  2X     3.182130    2.151695    2.151695  -12.773463   -0.000000    0.000000    3.182130   -2.151695   -2.151695   -1.740970    0.000000    0.000000    3.182130   -2.151695    2.151695    0.892956    0.000000    0.000000    3.182130    2.151695   -2.151695    0.892956   -0.000000   -0.000000
  2Y     2.151695    3.182130    2.151695   -0.000000  -12.773463    0.000000   -2.151695    3.182130    2.151695    0.000000    0.892956    0.000000   -2.151695    3.182130   -2.151695    0.000000   -1.740970    0.000000    2.151695    3.182130   -2.151695   -0.000000    0.892956   -0.000000
  2Z     2.151695    2.151695    3.182130   -0.000000    0.000000  -12.773463   -2.151695    2.151695    3.182130    0.000000    0.000000    0.892956    2.151695   -2.151695    3.182130   -0.000000   -0.000000    0.892956   -2.151695   -2.151695    3.182130   -0.000000    0.000000   -1.740970
  3X    -1.740970    0.000000    0.000000    3.182130   -2.151695   -2.151695  -12.773463   -0.000000    0.000000    3.182130    2.151695    2.151695    0.892956   -0.000000   -0.000000    3.182130    2.151695   -2.151695    0.892956    0.000000    0.000000    3.182130   -2.151695    2.151695
  3Y     0.000000    0.892956    0.000000   -2.151695    3.182130    2.151695   -0.000000  -12.773463    0.000000    2.151695    3.182130    2.151695   -0.000000    0.892956   -0.000000    2.151695    3.182130   -2.151695    0.000000   -1.740970    0.000000   -2.151695    3.182130   -2.151695
  3Z     0.000000    0.000000    0.892956   -2.151695    2.151695    3.182130   -0.000000    0.000000  -12.773463    2.151695    2.151695    3.182130   -0.000000    0.000000   -1.740970   -2.151695   -2.151695    3.182130   -0.000000   -0.000000    0.892956    2.151695   -2.151695    3.182130
  4X     3.182130   -2.151695   -2.151695   -1.740970    0.000000    0.000000    3.182130    2.151695    2.151695  -12.773463   -0.000000    0.000000    3.182130    2.151695   -2.151695    0.892956   -0.000000   -0.000000    3.182130   -2.151695    2.151695    0.892956    0.000000    0.000000
  4Y    -2.151695    3.182130    2.151695    0.000000    0.892956    0.000000    2.151695    3.182130    2.151695   -0.000000  -12.773463    0.000000    2.151695    3.182130   -2.151695   -0.000000    0.892956   -0.000000   -2.151695    3.182130   -2.151695    0.000000   -1.740970    0.000000
  4Z    -2.151695    2.151695    3.182130    0.000000    0.000000    0.892956    2.151695    2.151695    3.182130   -0.000000    0.000000  -12.773463   -2.151695   -2.151695    3.182130   -0.000000    0.000000   -1.740970    2.151695   -2.151695    3.182130   -0.000000   -0.000000    0.892956
  5X     0.892956    0.000000    0.000000    3.182130   -2.151695    2.151695    0.892956   -0.000000   -0.000000    3.182130    2.151695   -2.151695  -12.773463   -0.000000    0.000000    3.182130    2.151695    2.151695   -1.740970    0.000000    0.000000    3.182130   -2.151695   -2.151695
  5Y     0.000000   -1.740970    0.000000   -2.151695    3.182130   -2.151695   -0.000000    0.892956   -0.000000    2.151695    3.182130   -2.151695   -0.000000  -12.773463    0.000000    2.151695    3.182130    2.151695    0.000000    0.892956    0.000000   -2.151695    3.182130    2.151695
  5Z    -0.000000   -0.000000    0.892956    2.151695   -2.151695    3.182130   -0.000000    0.000000   -1.740970   -2.151695   -2.151695    3.182130   -0.000000    0.000000  -12.773463    2.151695    2.151695    3.182130    0.000000    0.000000    0.892956   -2.151695    2.151695    3.182130
  6X     3.182130   -2.151695    2.151695    0.892956    0.000000    0.000000    3.182130    2.151695   -2.151695    0.892956   -0.000000   -0.000000    3.182130    2.151695    2.151695  -12.773463   -0.000000    0.000000    3.182130   -2.151695   -2.151695   -1.740970    0.000000    0.000000
  6Y    -2.151695    3.182130   -2.151695    0.000000   -1.740970    0.000000    2.151695    3.182130   -2.151695   -0.000000    0.892956   -0.000000    2.151695    3.182130    2.151695   -0.000000  -12.773463    0.000000   -2.151695    3.182130    2.151695    0.000000    0.892956    0.000000
  6Z     2.151695   -2.151695    3.182130   -0.000000   -0.000000    0.892956   -2.151695   -2.151695    3.182130   -0.000000    0.000000   -1.740970    2.151695    2.151695    3.182130   -0.000000    0.000000  -12.773463   -2.151695    2.151695    3.182130    0.000000    0.000000    0.892956
  7X     0.892956   -0.000000   -0.000000    3.182130    2.151695   -2.151695    0.892956    0.000000    0.000000    3.182130   -2.151695    2.151695   -1.740970    0.000000    0.000000    3.182130   -2.151695   -2.151695  -12.773463   -0.000000    0.000000    3.182130    2.151695    2.151695
  7Y    -0.000000    0.892956   -0.000000    2.151695    3.182130   -2.151695    0.000000   -1.740970    0.000000   -2.151695    3.182130   -2.151695    0.000000    0.892956    0.000000   -2.151695    3.182130    2.151695   -0.000000  -12.773463    0.000000    2.151695    3.182130    2.151695
  7Z    -0.000000    0.000000   -1.740970   -2.151695   -2.151695    3.182130   -0.000000   -0.000000    0.892956    2.151695   -2.151695    3.182130    0.000000    0.000000    0.892956   -2.151695    2.151695    3.182130   -0.000000    0.000000  -12.773463    2.151695    2.151695    3.182130
  8X     3.182130    2.151695   -2.151695    0.892956   -0.000000   -0.000000    3.182130   -2.151695    2.151695    0.892956    0.000000    0.000000    3.182130   -2.151695   -2.151695   -1.740970    0.000000    0.000000    3.182130    2.151695    2.151695  -12.773463   -0.000000    0.000000
  8Y     2.151695    3.182130   -2.151695   -0.000000    0.892956   -0.000000   -2.151695    3.182130   -2.151695    0.000000   -1.740970    0.000000   -2.151695    3.182130    2.151695    0.000000    0.892956    0.000000    2.151695    3.182130    2.151695   -0.000000  -12.773463    0.000000
  8Z    -2.151695   -2.151695    3.182130   -0.000000    0.000000   -1.740970    2.151695   -2.151695    3.182130   -0.000000   -0.000000    0.892956   -2.151695    2.151695    3.182130    0.000000    0.000000    0.892956    2.151695    2.151695    3.182130   -0.000000    0.000000  -12.773463

 Eigenvectors and eigenvalues of the dynamical matrix

   1 f  =   14.883925 THz    93.518457 2PiTHz  496.474270 cm-1    61.554986 meV
             X         Y         Z           dx          dy          dz
      0.000000  0.000000  0.000000     0.324219    0.136284    0.036172
      1.373411  1.373411  1.373411    -0.324219   -0.136284   -0.036172
      0.000000  2.746821  2.746821     0.324219    0.136284    0.036172
      1.373411  4.120232  4.120232    -0.324219   -0.136284   -0.036172
      2.746821  0.000000  2.746821     0.324219    0.136284    0.036172
      4.120232  1.373411  4.120232    -0.324219   -0.136284   -0.036172
      2.746821  2.746821  0.000000     0.324219    0.136284    0.036172
      4.120232  4.120232  1.373411    -0.324219   -0.136284   -0.036172

[...]

  23 f/i=    0.000000 THz     0.000001 2PiTHz    0.000005 cm-1     0.000001 meV
             X         Y         Z           dx          dy          dz
      0.000000  0.000000  0.000000    -0.048721   -0.124184    0.327421
      1.373411  1.373411  1.373411    -0.048721   -0.124184    0.327421
      0.000000  2.746821  2.746821    -0.048721   -0.124184    0.327421
      1.373411  4.120232  4.120232    -0.048721   -0.124184    0.327421
      2.746821  0.000000  2.746821    -0.048721   -0.124184    0.327421
      4.120232  1.373411  4.120232    -0.048721   -0.124184    0.327421
      2.746821  2.746821  0.000000    -0.048721   -0.124184    0.327421
      4.120232  4.120232  1.373411    -0.048721   -0.124184    0.327421

[...]

 Eigenvectors after division by SQRT(mass)

 Eigenvectors and eigenvalues of the dynamical matrix

[...]

  22 f  =    0.000000 THz     0.000002 2PiTHz    0.000012 cm-1     0.000002 meV
             X         Y         Z           dx          dy          dz
      0.000000  0.000000  0.000000    -0.062129    0.024306   -0.000026
      1.373411  1.373411  1.373411    -0.062129    0.024306   -0.000026
      0.000000  2.746821  2.746821    -0.062129    0.024306   -0.000026
      1.373411  4.120232  4.120232    -0.062129    0.024306   -0.000026
      2.746821  0.000000  2.746821    -0.062129    0.024306   -0.000026
      4.120232  1.373411  4.120232    -0.062129    0.024306   -0.000026
      2.746821  2.746821  0.000000    -0.062129    0.024306   -0.000026
      4.120232  4.120232  1.373411    -0.062129    0.024306   -0.000026

[...]

  24 f/i=    0.000000 THz     0.000001 2PiTHz    0.000008 cm-1     0.000001 meV
             X         Y         Z           dx          dy          dz
      0.000000  0.000000  0.000000    -0.022500   -0.057540   -0.025172
      1.373411  1.373411  1.373411    -0.022500   -0.057540   -0.025172
      0.000000  2.746821  2.746821    -0.022500   -0.057540   -0.025172
      1.373411  4.120232  4.120232    -0.022500   -0.057540   -0.025172
      2.746821  0.000000  2.746821    -0.022500   -0.057540   -0.025172
      4.120232  1.373411  4.120232    -0.022500   -0.057540   -0.025172
      2.746821  2.746821  0.000000    -0.022500   -0.057540   -0.025172
      4.120232  4.120232  1.373411    -0.022500   -0.057540   -0.025172

 MACROSCOPIC STATIC DIELECTRIC TENSOR IONIC CONTRIBUTION
           0.000000     0.000000     0.000000
           0.000000     0.000000    -0.000000
          -0.000000    -0.000000    -0.000000

 ELASTIC MODULI IONIC CONTR (kBar)
 Direction    XX          YY          ZZ          XY          YZ          ZX
 XX          -0.0000     -0.0000     -0.0000      0.0000      0.0000      0.0000
 YY          -0.0000     -0.0000     -0.0000      0.0000      0.0000      0.0000
 ZZ          -0.0000     -0.0000     -0.0000      0.0000      0.0000      0.0000
 XY           0.0000      0.0000      0.0000   -207.8132      0.0000      0.0000
 YZ           0.0000      0.0000      0.0000     -0.0000   -207.8132      0.0000
 ZX           0.0000      0.0000      0.0000      0.0000      0.0000   -207.8132

 PIEZOELECTRIC TENSOR IONIC CONTR  for field in x, y, z        (C/m^2)
          XX          YY          ZZ          XY          YZ          ZX
  x    -0.00000    -0.00000    -0.00000    -0.00000     0.00000     0.00000
  y    -0.00000    -0.00000    -0.00000     0.00000    -0.00000     0.00000
  z    -0.00000    -0.00000    -0.00000     0.00000     0.00000     0.00000

 total charge

[...]

 magnetization (x)

# of ion     s       p       d       tot
  1        0.000  -0.000   0.000  -0.000
  2        0.000  -0.000   0.000  -0.000
  3        0.000  -0.000   0.000  -0.000
  4        0.000  -0.000   0.000  -0.000
  5        0.000  -0.000   0.000  -0.000
  6        0.000  -0.000   0.000  -0.000
  7        0.000  -0.000   0.000  -0.000
  8        0.000  -0.000   0.000  -0.000
tot        0.000  -0.000   0.000  -0.000